capacidades = [1000, 1000, 500];
costos = [22, 100, 30];

n_clientes = 7;
n_dias = 5;

d = [|800, 300, 100, 230, 500|
      200, 700, 400, 420, 0|
      100, 700, 350, 420, 0|
      100, 0, 25, 420, 0|
      0, 350, 100, 50, 0|
      50, 0, 0, 25, 0|
      50, 0, 350, 100, 0|];
      
limit_dias = 4;
porcentaje = 0.9;